#SOLVERNAME# PAJ_Gurobi_msd_sep
#SOLVER# Pajarito.PajaritoSolver(3, 3600.0, 1.0e-5, true, Gurobi.GurobiSolver(nothing, Any[(:OutputFlag, 1), (:Threads, 8), (:IntFeasTol, 1.0e-9), (:FeasibilityTol, 1.0e-8), (:MIPGap, 1.0e-5)]), Pajarito.UnsetSolver(), 0, false, true, Pajarito.UnsetSolver(), false, false, false, false, true, false, false, true, false, true, true, true, true, false, true, 10.0, true, true, false, true, 1.0e-12, 1.0e-8, false, "")
#INSTANCE# syn20m04h.cbf.gz
#TIMELIMIT# 3600.0

Problem dimensions:
       variables |     821
     constraints |    2537
   nonzeros in A |    4449

Cones summary:
Cone             | Count   | Min dim.  | Max dim. 
   Primal expon. |      56 |         3 |         3

Variable types:
      continuous |     661
         integer |     160

Transforming data...               0.00s

Building MIP model...              0.01s
Academic license - for non-commercial use only
Optimize a model with 2649 rows, 821 columns and 4897 nonzeros
Variable types: 661 continuous, 160 integer (0 binary)
Coefficient statistics:
  Matrix range     [2e-03, 4e+02]
  Objective range  [1e+00, 1e+00]
  Bounds range     [0e+00, 0e+00]
  RHS range        [6e-01, 4e+01]
Found heuristic solution: objective 5.0000000
Presolve removed 2134 rows and 508 columns
Presolve time: 0.01s
Presolved: 515 rows, 313 columns, 1344 nonzeros
Variable types: 172 continuous, 141 integer (141 binary)

Root relaxation: objective -8.941005e+03, 236 iterations, 0.00 seconds

    Nodes    |    Current Node    |     Objective Bounds      |     Work
 Expl Unexpl |  Obj  Depth IntInf | Incumbent    BestBd   Gap | It/Node Time

     0     0 -3569.7662    0   15    5.00000 -3569.7662      -     -    0s
     0     0 -3536.2230    0    5    5.00000 -3536.2230      -     -    0s
     0     0 -3533.0416    0    5    5.00000 -3533.0416      -     -    0s
     0     0 -3533.0416    0    5    5.00000 -3533.0416      -     -    0s
     0     2 -3533.0416    0    5    5.00000 -3533.0416      -     -    0s
*   62     7               3    -3482.019331 -3532.7440  1.46%  19.6    0s
*   69     0               2    -3532.743948 -3532.7439  0.00%  18.1    0s

Cutting planes:
  MIR: 1
  Flow cover: 1
  Lazy constraints: 509

Explored 71 nodes (1852 simplex iterations) in 0.07 seconds
Thread count was 8 (of 16 available processors)

Solution count 3: -3532.74 -3482.02 5 

Solve interrupted
Best objective -3.532743948449e+03, best bound -3.532743948449e+03, gap 0.0000%

Starting MIP-solver-driven algorithm

MIP-solver-driven algorithm summary:
 - Status               =        Optimal
 - Best feasible        =  -3.532744e+03
 - Best bound           =  -3.532744e+03
 - Relative opt. gap    =      0.000e+00
 - Total time (s)       =       8.97e-02

Timers (s):
 - Setup                =   1.53e-02
 -- Transform data      =   1.90e-03
 -- Create conic data   =   0.00e+00
 -- Create MIP data     =   1.34e-02
 - Algorithm            =   7.44e-02
 -- Solve relaxation    =   0.00e+00
 -- Get relaxation cuts =   0.00e+00
 -- MIP solver driving  =   7.42e-02
 -- Solve subproblems   =   0.00e+00
 -- Get subproblem cuts =   0.00e+00
 -- Get separation cuts =   3.59e-03

Counters:
 - Lazy callbacks       =    30
 -- Integer repeats     =     0
 -- Conic subproblems   =     0
 -- Feasible solutions  =     5
 --- From subproblems   =     0
 --- In lazy callback   =     5
 - Heuristic callbacks  =     0
 -- Solutions passed    =     0

Solution returned by MIP solver

Rounds of full separation/subproblem cuts, and count of cuts added:
Cone             | Subp.  | Sep.   | Total  | Relax. | Viol. 
   Primal expon. |      0 |    520 |    520 |      0 |    520

Distance to feasibility (negative indicates strict feasibility):
Cone             | Variable  | Constraint
          Linear |        NA |  4.26e-14
   Primal expon. |        NA |  1.43e-08

Distance to integrality of integer/binary variables:
         integer |  2.22e-15

#STATUS# Optimal
#OBJVAL# -3532.7439484492584
#OBJBOUND# -3532.7439484492584
#NODECOUNT# 71
#TIMESOLVER# 0.08970904350280762
#TIMEALL# 0.09481191635131836
#SOLUTION# [40.0,40.0,40.00000000000004,40.000000000000036,0.0,0.0,0.0,0.0,8.912572960090344,8.912572960090344,8.912572960090344,8.912572960090344,0.0,0.0,0.0,0.0,0.0,0.0,0.0,0.0,0.0,0.0,0.0,0.0,0.0,0.0,0.0,0.0,0.0,0.0,0.0,0.0,0.0,0.0,0.0,0.0,0.0,0.0,2.4849977903241927,0.0,2.4429044407774803,2.5754614851729727,0.0,2.45449932415003,0.0,0.1157677930403445,0.1880694082563567,0.0,0.0,0.0,0.0,0.0,0.26017034686211826,0.0,0.013412646457652139,0.2504395548984791,0.0,-0.0,-0.0,-0.0,1.0,-0.0,-0.0,-0.0,0.0,-0.0,-0.0,-0.0,0.0,0.0,0.0,-0.0,0.9999999999999978,-0.0,-0.0,-0.0,0.0,0.0,-0.0,-0.0,0.0,0.0,-0.0,-0.0,0.0,-0.0,-0.0,-0.0,-0.0,-0.0,-0.0,-0.0,1.0,-0.0,-0.0,-0.0,1.0,-0.0,-0.0,-0.0,0.0,0.0,-0.0,-0.0,0.0,0.0,-0.0,-0.0,0.0,-0.0,-0.0,-0.0,0.0,-0.0,0.0,-0.0,1.0,-0.0,-0.0,-0.0,1.0,-0.0,-0.0,-0.0,1.0,-0.0,-0.0,-0.0,0.0,-0.0,-0.0,-0.0,1.0,-0.0,-0.0,-0.0,3532.7439484492584,0.0,40.0,0.0,40.0,0.0,40.00000000000004,0.0,40.000000000000036,0.0,4.456286480045169,4.456286480045169,0.0,4.456286480045169,4.456286480045169,0.0,4.45628648004517,4.45628648004517,0.0,4.45628648004517,4.45628648004517,4.456286480045169,4.456286480045169,4.45628648004517,4.45628648004517,0.0,0.0,4.456286480045172,0.0,0.0,4.456286480045172,0.0,0.0,4.456286480045172,0.0,0.0,4.456286480045172,0.0,0.0,0.0,0.0,0.0,0.0,0.0,0.0,0.0,0.0,0.0,0.0,4.456286480045172,0.0,4.071507401295801,0.3847790787493713,4.456286480045172,0.0,4.292435808621621,0.1638506714235517,4.456286480045172,0.0,4.141662983873655,0.31462349617151736,4.456286480045172,0.0,4.090832206916717,0.3654542731284544,0.0,0.0,0.0,0.0,0.0,0.0,0.0,0.0,0.0,0.0,0.0,0.0,0.0,0.0,0.0,0.0,0.0,0.0,0.0,0.0,2.4429044407774803,0.0,2.4429044407774803,2.5754614851729727,0.0,2.5754614851729727,2.4849977903241927,2.4849977903241927,0.0,2.45449932415003,0.0,2.45449932415003,0.35809469001465727,0.0,0.0,0.35809469001465727,0.16690746134673085,0.16690746134673085,0.0,0.0,0.3009053467577131,0.28500062084468786,0.0,0.01590472591302522,0.3426358955094528,0.0,0.0,0.3426358955094528,0.0,-0.0,0.0,0.0,0.0,0.0,0.0,0.0,0.0,0.0,0.0,0.0,0.0,0.0,0.0,0.0,-0.0,-0.0,-0.0,-0.0,-0.0,-0.0,-0.0,-0.0,-3.7135720667043075,1.0,40.0,4.456286480045169,-3.7135720667043075,1.0,40.0,4.456286480045169,-3.713572066704309,1.0,40.00000000000004,4.45628648004517,-3.713572066704309,1.0,40.000000000000036,4.45628648004517,-0.0,-0.0,-0.0,-0.0,-0.0,-0.0,-0.0,-0.0,0.0,0.0,0.0,0.0,0.0,0.0,0.0,0.0,-0.0,-0.0,-0.0,-0.0,-0.0,-0.0,-0.0,-0.0,0.0,0.0,0.0,0.0,0.0,0.0,0.0,0.0,0.0,0.0,0.0,0.0,0.0,0.0,0.0,0.0,0.0,0.0,0.0,0.0,-0.0,-0.0,-0.0,-0.0,-0.0,-0.0,-0.0,-0.0,0.0,0.0,0.0,0.0,4.456286480045172,4.456286480045172,4.456286480045172,4.456286480045172,4.456286480045172,4.456286480045172,4.456286480045172,4.456286480045172,8.912572960090344,8.912572960090344,8.912572960090344,8.912572960090344,-0.0,-0.0,-0.0,-0.0,-0.0,-0.0,-0.0,-0.0,-0.0,-0.0,-0.0,-0.0,0.9999999999999978,1.0,1.0,0.9999999999999978,0.0,0.0,0.0,0.0,0.0,-0.0,0.0,0.0,0.0,0.0,0.0,0.0,0.0,0.0,0.0,0.0,-0.0,-0.0,-0.0,-0.0,-0.0,-0.0,-0.0,-0.0,0.0,0.0,0.0,0.0,0.0,-0.0,0.0,0.0,0.0,0.0,0.0,0.0,0.0,-0.0,0.0,0.0,0.0,0.0,0.0,0.0,-0.0,-0.0,-0.0,-0.0,-0.0,-0.0,-0.0,-0.0,0.0,0.0,0.0,0.0,0.0,0.0,0.0,0.0,0.0,0.0,0.0,0.0,0.0,0.0,0.0,0.0,0.0,0.0,0.0,0.0,-0.0,-0.0,-0.0,-0.0,-0.0,-0.0,-0.0,-0.0,0.0,0.0,0.0,0.0,0.0,0.0,0.0,0.0,-0.0,-0.0,-0.0,-0.0,-0.0,-0.0,-0.0,-0.0,-0.0,-0.0,-0.0,-0.0,4.071507401295801,2.4429044407774803,4.292435808621621,2.5754614851729727,4.141662983873655,2.4849977903241927,4.090832206916717,2.45449932415003,-0.0,-0.0,-0.0,-0.0,-0.0,-0.0,-0.0,-0.0,1.0,1.0,1.0,1.0,-0.32554062728605204,1.0,0.3847790787493713,0.35809469001465727,-0.1517340557697553,1.0,0.1638506714235517,0.16690746134673085,-0.2735503152342846,1.0,0.31462349617151736,0.3009053467577131,-0.31148717773586615,1.0,0.3654542731284544,0.3426358955094528,-0.0,-0.0,-0.0,-0.0,-0.0,-0.0,-0.0,-0.0,0.0,0.0,0.0,0.0,0.0,0.0,0.0,0.0,0.0,0.0,0.0,0.0,-0.0,-0.0,-0.0,-0.0,-0.0,-0.0,-0.0,-0.0,-0.0,-0.0,-0.0,-0.0,0.0,-0.0,0.0,0.0,0.0,-0.0,0.0,0.0,0.0,0.0,0.0,0.0,0.0,-0.0,0.0,0.0,0.0,0.0,0.0,0.0,-0.0,-0.0,-0.0,-0.0,-0.0,-0.0,-0.0,-0.0,0.0,0.0,0.0,0.0,0.0,0.0,0.0,0.0,0.0,0.0,0.0,0.0,0.0,0.0,0.0,0.0,-0.0,-0.0,-0.0,-0.0,-0.0,-0.0,-0.0,-0.0,0.0,0.0,0.0,0.0,0.0,-0.0,0.0,0.0,0.0,0.0,0.0,0.0,0.0,0.0,0.0,0.0,0.0,0.0,0.0,0.0,0.0,0.0,0.0,0.0,-0.0,-0.0,-0.0,-0.0,-0.0,-0.0,-0.0,-0.0,-0.0,-0.0,-0.0,-0.0,0.0,0.0,0.0,0.0,2.4849977903241927,2.4849977903241927,0.0,0.0,-0.0,-0.0,-0.0,-0.0,-0.0,-0.0,-0.0,-0.0,1.0,1.0,1.0,1.0,2.4429044407774803,2.4429044407774803,2.5754614851729727,2.5754614851729727,0.0,0.0,2.45449932415003,2.45449932415003,-0.0,-0.0,-0.0,-0.0,-0.0,-0.0,-0.0,-0.0,1.0,1.0,1.0,1.0,0.0,1.0,0.0,0.0,-0.154357057387126,1.0,0.16690746134673085,0.1157677930403445,-0.2507592110084756,1.0,0.28500062084468786,0.1880694082563567,0.0,1.0,0.0,0.0,-0.0,-0.0,-0.0,-0.0,-0.0,-0.0,-0.0,-0.0,0.0,0.0,0.0,0.0,0.0,0.0,0.0,0.0,0.0,-0.0,0.0,0.0,0.0,0.0,0.0,0.0,-0.0,-0.0,-0.0,-0.0,-0.0,-0.0,-0.0,-0.0,-0.3060827610142568,1.0,0.35809469001465727,0.26017034686211826,0.0,1.0,0.0,0.0,-0.015779584067826046,1.0,0.01590472591302522,0.013412646457652139,-0.29463477046879893,1.0,0.3426358955094528,0.2504395548984791,-0.0,-0.0,-0.0,-0.0,-0.0,-0.0,-0.0,-0.0,-0.0,0.0,0.0,0.0,-8.0,0.0,0.0,0.0,-0.0,0.0,0.0,0.0,-0.0,-0.0,-0.0,0.0,-5.999999999999987,0.0,0.0,0.0,-0.0,-0.0,0.0,0.0,-0.0,-0.0,0.0,0.0,-0.0,0.0,0.0,0.0,0.0,0.0,0.0,0.0,-4.0,0.0,0.0,0.0,-3.0,0.0,0.0,0.0,-0.0,-0.0,0.0,0.0,-0.0,-0.0,0.0,0.0,-0.0,0.0,0.0,0.0,-0.0,0.0,-0.0,0.0,-2.0,0.0,0.0,0.0,-3.0,0.0,0.0,0.0,-5.0,0.0,0.0,0.0,-0.0,0.0,0.0,0.0,-1.0,0.0,0.0,0.0]
